Route #1: 0 30 49 35 33 48 38 12 0
Route #2: 0 4 53 29 41 21 36 47 5 0
Route #3: 0 8 15 25 51 2 34 14 42 0
Route #4: 0 11 44 13 26 16 0
Route #5: 0 7 37 23 39 19 20 0
Route #6: 0 1 45 24 52 54 0
Route #7: 0 43 27 18 28 9 17 10 3 40 0
Route #8: 0 46 55 31 50 56 0
Route #9: 0 22 32 6 0
Cost 1673:
